unsat
(:max-memory                   18.42
 :memory                       18.33
 :nlsat-arith-var              3
 :nlsat-atoms                  13
 :nlsat-bool-var               1
 :nlsat-clauses                10
 :nlsat-conflicts              4
 :nlsat-irrational-assignments 1
 :nlsat-propagations           17
 :nlsat-stages                 4
 :num-allocs                   50907
 :rlimit-count                 2288
 :time                         0.00
 :total-time                   0.01)
